p tw 83 92
1 2
2 13
3 4
4 5
5 6
5 17
6 7
7 8
8 9
9 10
10 11
10 17
11 12
12 14
13 24
13 35
14 15
15 16
16 4
17 18
18 19
18 31
19 20
20 21
21 22
22 23
23 25
24 81
25 26
25 31
26 27
27 28
28 29
29 30
30 31
31 32
32 33
32 61
33 34
34 36
35 46
36 37
37 38
38 39
39 40
40 41
41 42
41 56
42 43
43 44
44 45
45 47
45 50
46 57
47 48
48 49
49 50
50 51
51 52
52 53
53 54
54 55
55 40
56 58
57 68
58 59
59 60
59 61
60 61
61 62
62 63
62 78
63 64
64 65
65 66
66 67
67 69
68 79
69 70
70 71
71 72
72 73
73 74
74 75
75 76
76 77
77 81
78 80
79 83
80 81
81 82
83 3
